
 102   30
  10   10   10   10   10   10   10   10   10   10   10   10   10   10   10   10   10   10   10   10   10   10   10   10   10   10   10   10   10   10

   0   0   0   0   0   0   0   0   0   0   0   0   0   0   0   0   0   0   0   0   0   0   0   0   0   0   0   0   0   0   0  29 2 3 4 5 6 8 9 10 11 12 13 14 15 16 17 18 19 20 21 22 24 26 27 28 29 30 31 36 42 
   7   0   0   0   0   0   1   0   0   1   0   0   0   0   0   2   0   0   2   0   0   1   0   0   0   0   0   0   0   0   0  17 73 69 56 55 54 53 51 49 46 45 44 41 39 38 37 33 32 
   5   1   0   0   2   0   0   0   0   0   0   0   0   0   0   0   0   0   0   0   0   0   0   0   0   0   0   0   0   3   2   8 59 55 53 51 47 40 25 7 
   8   0   0   0   0   0   0   0   0   0   0   1   0   0   0   0   0   0   0   0   2   5   0   0   0   0   0   0   0   0   0  19 100 96 72 70 66 60 59 58 56 55 54 53 52 51 48 44 40 39 32 
   9   0   0   0   0   0   0   0   0   0   3   0   0   2   0   0   0   0   0   0   0   0   0   1   0   0   0   0   0   3   0  15 99 97 72 71 61 58 56 53 52 51 47 44 40 35 34 
   8   0   0   0   0   0   0   1   0   6   0   0   0   0   0   0   0   0   0   0   0   0   0  10   2   0   0   0   0   0   0  11 71 65 61 60 59 55 48 46 39 34 23 
   2   3   0   0   0   0   0   0   0   0   0   0   0   0   0   0   0   0   5   0   0   0   1   0   3   0   0   0   1   0   0  12 101 73 66 64 60 58 54 52 48 37 34 32 
   9   0   2   0   0   0   0   0   0   0   0   0   0   0   0   0   0   0   0   0   0   0   0   5   0   0   0   0   0   0   0  14 100 88 72 71 69 65 59 55 54 53 51 48 39 32 
   2   0   0   2   0   0   4   0   0   0   3   0   0   0   0   0   0   1   0   0   0   6   0   0   0   0   1   0   0   0   0  19 101 98 97 96 94 89 70 69 67 64 61 60 59 58 55 52 50 48 43 
   8   0   0   5   0   0   0   0   0   5   0   0   0   0   0   0   0   0   0   1   0   0   0   0   0   0   0   0   0   0   0  14 101 100 97 94 73 71 60 59 57 55 54 51 50 34 
   7   0   0   0   0   0   0   0   0   0   0   0   0   0   0   0   0   0   0   0   6   0   0   0   0   0   0   0   7   0   7   8 70 60 56 55 52 44 43 23 
  10   0   6   0   8   0   0   0   1   0   5   0   0   0   1   0   0   0   0   0   0   0  10   7   0   0   8   0   0   0   0   9 99 72 59 56 52 51 48 34 32 
   9   0   9   0   7   0   0   0   9   0   0   0   1   0   0   0   0   7   0   0   0   0   0   0   0   0   0   0  10   0   9  15 101 99 98 93 92 90 73 70 68 67 64 58 53 41 33 
   4   0   0   3   0   0   0   0   0   0   0   0   0   3   0   0   0   7   0   0   0   0   0   0   0   0   0   0   0   0   0  17 101 98 97 96 92 88 69 68 67 65 64 61 60 59 54 52 46 
   9   0   0   0   0   0   0   0   0   0   0   0   0   5   5   0   0   0   0   0   0   0   0   7   0   0   7   0   0   0   0  18 101 99 98 97 96 95 92 88 84 72 67 65 64 59 56 55 52 46 
  10   0   0  10   0   0   0   0   0   0   0   4   0   0   0   0   0  10   0   0   0   0   0   0   0   0   0   0   6   0   0  16 101 98 97 94 90 82 70 69 67 64 62 60 58 56 55 43 
   2   5   0   0   5   0   0   5   0   0   0   0   0   4   0   0   0   0   0   0   0   0   0   0   0   0   0   0   0   0   0  18 101 100 99 95 93 92 90 89 84 71 69 68 67 66 65 52 48 41 
   7   0   0   0   0   0   6   6   0   0   0   0   0   6   0   7   0   0   0   0   6   0   0   0   0   0   0   0   0   0   0  18 97 96 94 93 91 89 86 73 72 71 70 69 63 60 58 54 52 47 
   7   0   0   0   0   0   0   0   0   0   0   0   0   0   6   0   0   0   0   0   1   0   0   0   0   0   0   0   0   0   6  16 99 98 97 96 94 93 91 89 86 70 68 67 64 63 52 47 
   6   9   0   0   0   0   0   0   0   7   0   0   0   0   0   0   0   0   0   0   0   0   0   0   0   0   0   0   7   8   0   9 100 96 91 88 87 67 64 62 32 
   5   0   0   0   0   0   0   0   0   0   0   0   0   0   0   0   0  10   0   0   0   0   7   0   0   2   0   0   9   0   0  14 101 99 98 96 92 89 84 81 70 65 59 57 55 50 
   7   0   0   0   0   0   0   0   0   0   0   0   0   0   0   0   0   0   8   0   0   0   0   0   0   0   0   0   0   0   0  15 98 97 95 92 90 89 88 84 69 67 66 64 63 52 48 
   4   0   0   0   0   0   0   0   0   0   0   0   0   0   0   6   0   0   0   0   0   0   0   0   0   0   0   0   0   6   0  11 100 98 97 96 94 86 85 63 58 53 51 
   9   0   4   0   5   0   0   0   0   0   0   0  10   0   0   3   0   0   0   0   0   0   0   0   0   0   0   0   5   0   0  12 94 92 91 89 84 83 78 77 73 67 52 50 
   4   0   0   0   0   0   0   0   0   0   0   0   0   0   0   0   0   5   0   0   0   0   0   0   0   0   6   0   0   0   0  18 100 96 94 92 90 86 85 84 82 81 80 79 72 71 68 67 65 64 
   9   0   0   0   0   0   0   0   0   0   0   0   0   0   0   0   0   0   0   0   0   0   0   0   8   0   0   0   0   2   0  18 98 97 96 90 88 87 86 85 84 79 78 77 70 69 68 67 64 62 
  10   0   0   0   0   0   0   0   0   0   0   0   0  10  10   0   0   0   0  10   0   0   0   0   0   0   0   1   0   8   0  18 99 97 96 93 92 90 89 88 86 82 81 80 79 78 69 67 65 64 
   3   0   0   5   0   0   0   0   0   0   0   0   0   0   0   0   0   0   0   5   0   0   8   0   0   0   0   0   0   0   0  15 98 97 95 94 93 92 89 86 82 81 80 79 77 68 51 
   7   0   0   0   0   0   0   0   0   0   0   5   0   0   0   0   0   0   0   0   0   0   0   0   0   4   0   0   0   0   0  18 100 97 95 94 89 88 87 86 85 84 82 80 79 78 76 67 65 62 
   3   0   0   0   0   0   0   0   0   0   0   0   0   0   0   0   0   0   0   0   4   0   4   0   0   0   0  10   0   0   8  15 101 100 98 89 88 87 85 84 82 76 73 65 63 62 59 
   5   0   4   0   0   0   0   0   0   0   0   0   0   0   0   0   0   0   0   0   0   0   0   0   0   0   0   4   0   0   0  12 99 97 96 94 90 88 84 77 68 67 64 48 
   2   0   5   0   0   1   0   0   0   0   0   7   0   0   0   0   0   5   0   0   7   0   0   0   0   0   0   0   0   0   0  10 97 94 92 89 84 83 79 78 57 50 
   7   0   0   0   0   0   0   0   0   6   0   0   0   0   0   0   0   0   0   0   0   0   0   0   0   0   0   0   0   0   0   7 100 88 72 65 63 52 48 
   4   0   0   0   0   0   0   0   0   0   5   0   0   0   0   0   0   0   0   0  10   0   0   0   0   0   0   0   0   0   0  14 98 96 92 91 89 88 85 83 79 70 69 67 63 62 
   9   0   0   7   0   0   3   0   0   0   0   5   0   0   0   0   0   0   0   0   0   0   0   0   0   0   0   0   0   0   0  10 101 95 92 88 85 84 83 62 57 55 
   3   0   0   0   0   8  10   0   0   0   0   0   0   0   0   0   0   0   0   0   0   0   0   0   0   0   5   0   0   0  10  16 100 99 94 93 90 88 87 85 82 81 79 78 77 74 69 67 
   6   0   0   0   0   0   0   0   2   0   8   0   0   0   0   0   0   0   0   0   0   0   0   0   0   0   0   0   0   0   4  12 98 90 86 85 84 83 81 79 78 68 67 65 
   6   0   0   0   0   0   0   0   0   0   0   0   0   0   3   0   0   5   0   0   0   0   0   0   0   6   7   0   3   0   0  11 96 94 88 87 86 80 79 75 68 64 63 
  10   0   6   0   0   0   0   0   0   0   0   0   6   0   9   0   0   5   0   0   0   0   0   0   8   0   0   0   5   0   5  14 101 99 98 90 87 84 83 82 80 79 78 77 74 67 
   1   0   8   8   0   0   0   0   0   0   0   0   0   0   0   0   0   0   0   0   0   0   0   0   0   0   0   0   0   0   0  12 94 93 89 88 86 84 83 82 79 74 69 67 
   6   0   0   0   0   0   0   7   0   7   0   0   0   0   0   0   0   0   0   0   0   0   0   0   0   0   0   0   0   0   0   9 96 91 88 83 82 76 74 63 59 
   4   0   0   0   0   0   0   0   0  10   8   0   0   0   0   0   0   0   5   0   8   0   0   0   0   5   0   0   0   0   0  12 100 96 95 89 87 85 84 81 80 76 74 67 
   9   0   0   0   0   0   0   0   0   0   0   0   0   6   0   0   1   0   5   0   0   0   0   0   0   0   0   0   0   0   0  11 99 92 91 88 85 84 81 77 74 71 68 
   9   0   0   0   0   0   8   0   0   0   0   8   0   0   0   0   0   0  10   0   0   0   0   5   0   7   0   0   0   0   4   9 87 86 85 83 82 79 75 65 62 
   4   5   0   0   0   0   0   0   0   0   0   7   0   0   0   0   0   0   0   0   0   0   6   0   0   0   0   0   0   0   0   8 86 79 77 75 71 70 68 60 
   2   0   5   0   0   0   0   0   0   0   0   0   0   0   0   0   0   0   0   0   0   7   7   6   7   0   0   7   0   0   0  10 94 93 89 87 86 82 80 79 74 63 
   9   0   0   5   0   0   0   0   0   0   0   0   0   0   0   0   8   0   0   0   0   0   0   0   6   0   0   0   0   0   0  11 92 90 88 87 84 83 82 81 80 79 74 
   4   0   0   0   0   0   5   0   0   0   0   0   0   0   0   0   0   0   0   0   0   0   0   4   0   0   0   0   0   0   0   9 87 86 83 82 80 78 76 75 62 
   6   0   0   0   4   8   0   0   0   5   6   0   0   0   0   0  10   0   0   0   0   0   0   0   0   0   0   0   6   0   0   8 89 88 87 86 79 76 74 66 
   2   9   0   8   6   0   0   0   0   0   0   0   0   0   6   0   0   0   0   0   0   0   0   0   0   0   0   0   0   0   0   9 95 93 90 86 85 82 80 76 75 
  10   8   0   0   0   6   0   0   0   6   0   0   0   0   0   0   0   0   0   0   0   0   3   0   0   0   0   0   0  10   0   6 90 84 78 76 67 64 
   8   0   0   9   0   0   0   0   0   0   0   0   0   0   0   0   5   0   0   0   0   0   0   0   0   0   0   0   4   0   0   6 87 85 82 79 75 62 
   9   2   0   4   0   0   0   0   0   6   0   0   0   0   0  10   5   0   0   0   0   0   0   5   0   0   0   5   0   0   0   5 89 82 79 75 62 
   8   0   0   0   0   0   0   0   0   0   0   6   0   0   0   0   0   0   0   0   0   0   0   0   0   0   0   0   0   0   0   5 99 83 80 75 62 
   8   0   0   0   0   0   0   0   0   0   0   0   8   0   0   0   0   0   0   0   0   0   0   0   0   0   0   0   0   0   0   4 87 74 68 63 
   7   0   0   0   4   7   0   0   0   0   0   7   0   0   0   0   0   0   0   0   0   0   0   0   0   0   0   0   0   0   0   6 93 91 89 79 75 74 
   7   0   0   0   0  10   0   0   0   0   0   0   0   0   0   0   0   0   0   0   6   0   0   0   0   7   0   0   0   0   0   5 80 77 75 74 68 
   4   0   0   0   0   0   0   0   0   0   0   0   0   0   7   0   0   0   0   0   0   0   0   0   5   0   0   0   0   0   0   5 95 88 84 76 74 
   5   0   0   5   0   0   0   0  10   0   0   0   0   0   0  10   0   0   0   0   0   0   0   0   0   0   0   0   0   0   0   4 80 79 78 75 
   8   0   0   3   0   0   0   0   0   8   0   0   0   0   0   0   0   0   0   0   0   0   0   0   0   0   0   0   0   0   0   3 84 76 74 
   2   0   0   0   0   0   0   0   0   0   0   0   0   2   0   0   0   0   0   0   0   0   0   0   0  10   0   0   9   0   5   3 100 80 75 
   1   0   0   0   0   0   0   0   0   0   0   0   0   0   0   0   0   0   0   0   0   0   0   7   0   0   0   0   0   0   0   2 81 74 
   9   0   0   0   5   0   0   0   0   0   0   0   0   8   0   0   0   0   0   0   0   0   0   3   0   0   0   0   0   0   0   2 78 77 
   4   0   0   0   0   0   0   0   0   0   0   0   0   0   0   0   0   0  10   7   0   0   0   9   4   7   0   0   0   0   0   2 83 74 
   9   0   7   0   6   0   7   0   0   0   0   0   6   0   0   5   4   9   0   0   0   0   0   0   0   0   0   0   0   0   0   2 91 77 
   2   0   6   9   4   0   0   0   0   0   6   0   5   6   0   0   0   0   0   4   7   0   0   8   2   0   4   8   0   0   0   2 85 77 
   4   0   0   0   0   0   0   9   0   0   0   0   0   0   0   0   0   0   0   8   0   0   0   0   0   6   0   0   0   0   0   1 75 
   9   0   0   5   0   0   0   4   0   0   0   0   0   0   6   0   0   0   3   0   0   0   0   0   0   0   8   0   0   0   0   1 76 
   8  10   0   0   0   4   0   0   7   0   0   0   0   0   0   0   0   7   0   0   0   4   0   7   0   0   8   0   0  10   0   1 76 
   1   0   8   0   0   6   0   0   0   0   0   0   0   4   6   0   0   0   0   9   0   0   0   0   8   0   0   0   0   0   0   1 80 
   4   0   6   0   7   0   0   0   0   0   0   0   0   6   0   0   0   0   0   0   0   0   0   0   0   0   0   0   0   0   0   1 78 
   4   0   0   0   3   5   0   0   0   0   0   0   0   0   0   0   0   0   0   7   0   0   0   0   0   0   0   9   0   0   0   1 74 
   1   0   0  10   9   5   0   0   0   0  10   8   7   0   0   0   0   0   0   0   0   0   0   0   0   0   7   0   0   0   0   1 75 
   9   7   0   0   0   0   0   0   0   0   0   0   0  10   0   4   0   0   0   0   0   0   0   0   0   0   0   0   0   0   0   1 102
   1   0   0   3   0   0   0   0   0   0   8   3   0   0   0   0   0   0   0   0   0   7   7   0   0   0   0   0   0   0   0   1 102
   6   0   7   0   0   0   0   0   0   0   0   0   0   0   0   0   7   0   0   0   0   9   4   0  10   0   0   0   0   0   0   1 102
   7   0   0   0   0   0   0   0   0   0   0   0   0   0   0   0   0   0   0   0   0   0   0   0   0   0   0   0   0   0   0   1 102
   8   0   0   0   0   0   0   0   0   0   0   0   0   0  10   0   0   0   0   0   0   0   0   0   0   0   5   0   0   0   0   1 102
   5   0   0   0   0   0   0   0   0   8   0   0   0   0   0   0   0   5   0   4   0   0   0   0   0   0   0   0   0   0   0   1 102
   9   0   0   0   9   0   0   0   0   0   0   4   0   0   0   0   0   0   0   0   0   0   0   0   0   0   0   0   0   0   0   1 102
   6   0   0   0   0   0   0   0   0   0   0  10   0   0   0   0   0   0   0   0   0   0   0   0   0   0   0   0   0   0   0   1 102
  10   0   0   5   0   0   0   0   0   0   0   0   0  10   0   0   0   0   0   0   0   6   0   0   0   0   0   0   0   0   0   1 102
   8   0   0   0   0   0   4   0   0   0   0   0   0   0   0   8   8   0   7   0   0   0   0   0   0   0   0   0   0   4   0   1 102
   5   0   5   0   0   0   0   0   0   0   0   0   0   4   0   0   0   0   0   0   0   0   0   0   5   0   0   0   0   0   9   1 102
   3   0   0   0   0   0   0   0   0   0   0   0   0   0   8   0   0   5   0   0   0   0   0   8   0   0   0   0   0   0   4   1 102
   7   0   0   0   0   8   0   0   0   0   0   0   0   0   0   0   0   0   0   0   0   0   0   0  10   0   0   0   4   4   0   1 102
   6   0   0   0   0   0   0   0   0   5   3   0   7  10   0   0   6   0   0   0   0   0   0   4   0   6   7   0   0   0   0   1 102
   8   0   0   0   0   0   0   0   0   0   0   0   0   0   0   0   0   0   0   0   8   0   0   8   0   0   0   0   0   0   0   1 102
   2   0   0   0   0   3   0   0   0   0   0   0   0   0   2   5   0   0   0   0   7   0   0   0   0   0   0   0   0   0   0   1 102
  10   0   0   0   0   0   0   0   0   0   0   0   0   0   0   0   0   0   0   0   6   0   0   0   0   0   0   0   0   8   0   1 102
   6   0  10   0   0   5   0   0   0   4   0   7   0   0   4   0   0   0   0   0   0   8   0   0   0   0   0   0   0   0   0   1 102
   2   0   0   0   0   0   0   0   0   0   0   8   0   0   7   0   0   0   0   5   0   0   0   0   0   0   0   0   0   0   5   1 102
   9   0   0   0   8   6   6   6   0   0   0   0   0   0   0   0   0   4   0   0   0   6   0   0   0   0   5   0   0   0   0   1 102
   8   0   0   0   0   8   0   0   7   0   7   0   4   0   0   0   0   0   0   0   0   0   0   0   0   0   0   4   0   0   0   1 102
   9   0   0   0   0   0   0   0   0   0   0   0   0   0   0   0   0   0   0   0   0   5   9   4   0   0   0   0   0   0   0   1 102
   3   0   0   0  10   0   0   7   0   0   0   0   0   0   0   0   0   0   5   4   0   0   0   0   8   0   0   0   0   0   5   1 102
   3   7   0   0   0   0   0   0   0   8   0   0   0   0   0   0   0   0   0   0   0   6   0   0   0   0   0   0   0   0   0   1 102
   4   0   4   0   0   0  10  10   0   0   0   0   0   0   0   0   0   0   0   0   0   9   0   0   4   0   0   0   0   0   0   1 102
   4   0   0   0   0   0   0   5   0   4   0   0   0   0   0   0   0   5   0   0   0   0   0   0   0   0   0   0   0   0   7   1 102
   5   0   0   8   0   0   0   0   0   0   0   0   0   0   6   0   0   0   0   8   0   5   0   0   0   0   0   0   8   0   0   1 102
   2   0   0   0   0   0   8   0   0   0   0   0   0   0   0   0   0   0   0   6   0   0   0   0   0   0   0   0   0   0   0   1 102
   0   0   0   0   0   0   0   0   0   0   0   0   0   0   0   0   0   0   0   0   0   0   0   0   0   0   0   0   0   0   0   0 
